Read MPS format model from file dat/rmp/DER_96_32768_10.mps
Reading time = 2.22 seconds
: 32864 rows, 74016 columns, 6396928 nonzeros
Gurobi Optimizer version 9.0.0 build v9.0.0rc2 (linux64)
Optimize a model with 32864 rows, 74016 columns and 6396928 nonzeros
Model fingerprint: 0x974f6bf2
Coefficient statistics:
  Matrix range     [1e-13, 1e+01]
  Objective range  [8e-01, 1e+03]
  Bounds range     [2e+05, 2e+05]
  RHS range        [1e+00, 1e+00]
Ordering time: 0.06s

Barrier statistics:
 AA' NZ     : 2.912e+06
 Factor NZ  : 3.265e+06 (roughly 70 MBytes of memory)
 Factor Ops : 3.391e+08 (less than 1 second per iteration)
 Threads    : 1

                  Objective                Residual
Iter       Primal          Dual         Primal    Dual     Compl     Time
   0   1.51102377e+10 -9.67067996e+08  2.49e+08 2.60e-02  3.49e+06     2s
   1   2.27358158e+08 -1.60013094e+08  3.36e+06 3.64e-12  4.94e+04     2s
   2   1.97391320e+07 -6.06213188e+07  2.82e+05 1.82e-12  4.84e+03     3s
   3   6.96714198e+05 -2.15647144e+07  6.13e+03 3.64e-12  3.75e+02     3s
   4   2.33504305e+05 -3.91242623e+06  3.49e-09 1.82e-12  5.59e+01     4s
   5   2.31537328e+05  1.37701914e+05  1.56e-09 5.46e-12  1.27e+00     4s
   6   2.30362377e+05  2.13056143e+05  1.86e-09 2.18e-11  2.34e-01     5s
   7   2.29381105e+05  2.24557513e+05  1.89e-09 3.64e-12  6.51e-02     6s
   8   2.28654660e+05  2.25421347e+05  5.75e-09 3.64e-12  4.36e-02     6s
   9   2.28133942e+05  2.25878375e+05  5.04e-09 1.82e-12  3.04e-02     7s
  10   2.27638195e+05  2.26217767e+05  1.25e-08 3.64e-12  1.92e-02     7s
  11   2.27240467e+05  2.26624655e+05  1.22e-08 3.64e-12  8.31e-03     8s
  12   2.27178432e+05  2.26722478e+05  1.10e-08 1.82e-12  6.15e-03     8s
  13   2.27116832e+05  2.26777118e+05  2.50e-08 1.82e-12  4.58e-03     9s
  14   2.27101480e+05  2.26815073e+05  3.31e-08 1.82e-12  3.86e-03     9s
  15   2.27092710e+05  2.26857351e+05  3.09e-08 1.82e-12  3.18e-03    10s
  16   2.27040235e+05  2.26886150e+05  4.03e-08 1.82e-12  2.08e-03    10s
  17   2.27034691e+05  2.26895011e+05  4.15e-08 1.82e-12  1.88e-03    11s
  18   2.27017531e+05  2.26917494e+05  5.20e-08 1.82e-12  1.35e-03    11s
  19   2.27012898e+05  2.26933161e+05  4.71e-08 1.82e-12  1.08e-03    12s
  20   2.27010947e+05  2.26939439e+05  5.10e-08 1.82e-12  9.65e-04    12s
  21   2.26997631e+05  2.26949079e+05  4.61e-08 1.82e-12  6.55e-04    13s
  22   2.26988486e+05  2.26953468e+05  6.31e-08 1.82e-12  4.72e-04    13s
  23   2.26985251e+05  2.26956529e+05  5.28e-08 1.82e-12  3.88e-04    14s
  24   2.26981380e+05  2.26959952e+05  5.69e-08 1.82e-12  2.89e-04    14s
  25   2.26977072e+05  2.26962950e+05  2.10e-08 1.82e-12  1.91e-04    15s
  26   2.26974622e+05  2.26964598e+05  2.35e-08 1.82e-12  1.35e-04    15s
  27   2.26973084e+05  2.26965433e+05  1.87e-08 1.82e-12  1.03e-04    16s
  28   2.26972149e+05  2.26966230e+05  2.10e-08 1.82e-12  7.99e-05    16s
  29   2.26970674e+05  2.26966656e+05  3.88e-08 1.82e-12  5.42e-05    17s
  30   2.26969988e+05  2.26967044e+05  3.91e-08 1.82e-12  3.97e-05    17s
  31   2.26969610e+05  2.26967231e+05  2.87e-08 1.82e-12  3.21e-05    18s
  32   2.26969280e+05  2.26967429e+05  3.60e-08 1.82e-12  2.50e-05    18s
  33   2.26968779e+05  2.26967557e+05  8.94e-08 1.82e-12  1.65e-05    19s
  34   2.26968510e+05  2.26967694e+05  9.33e-08 1.82e-12  1.10e-05    20s
  35   2.26968332e+05  2.26967738e+05  1.99e-07 1.82e-12  8.01e-06    20s
  36   2.26968132e+05  2.26967759e+05  1.24e-07 1.82e-12  5.03e-06    21s
  37   2.26967921e+05  2.26967791e+05  8.25e-07 1.82e-12  1.76e-06    21s
  38   2.26967869e+05  2.26967799e+05  6.31e-07 1.82e-12  9.46e-07    22s
  39   2.26967826e+05  2.26967808e+05  1.95e-06 1.82e-12  2.41e-07    22s
  40   2.26967822e+05  2.26967811e+05  5.53e-06 1.82e-12  1.45e-07    23s
  41   2.26967815e+05  2.26967814e+05  1.64e-05 3.64e-12  1.05e-08    23s
  42   2.26967814e+05  2.26967814e+05  6.13e-06 3.64e-12  2.84e-09    24s
  43   2.26967814e+05  2.26967814e+05  3.01e-06 3.64e-12  1.61e-10    24s
  44   2.26967814e+05  2.26967814e+05  6.32e-06 3.64e-12  1.64e-13    25s
  45   2.26967814e+05  2.26967814e+05  2.14e-07 3.64e-12  1.64e-16    25s

Barrier solved model in 45 iterations and 25.41 seconds
Optimal objective 2.26967814e+05

Solve time: 25.422283535
Barrier iterations: 45
